CapLotSizing_PM/src/Instancias/NCLSLT/6i6p2m/NBB07.OUT
 CG ITER, OVMR, OVMRUB =           1   10865.4150391    9361.2998047
 CG ITER, OVMR, OVMRUB =           2    9361.2998047    9361.2998047
 CG ITER, OVMR, OVMRUB =           3    9013.1962891    9361.2998047
 CG ITER, OVMR, OVMRUB =           4    9150.2822266    9294.4052734
 CG ITER, OVMR, OVMRUB =           5    8976.1943359    9294.4052734
 CG ITER, OVMR, OVMRUB =           6    8956.6669922    9294.4052734
 CG ITER, OVMR, OVMRUB =           7    8956.7822266    9294.4052734
 CG ITER, OVMR, OVMRUB =           8    8951.3544922    9294.4052734
 CG ITER, OVMR, OVMRUB =           9    8951.7255859    9294.4052734
 CG ITER, OVMR, OVMRUB =          10    8951.4345703    9294.4052734
 CG ITER, OVMR, OVMRUB =          11    8951.5800781    9294.4052734
 CG ITER, OVMR, OVMRUB =          12    8951.7636719    9294.4052734
 CG ITER, OVMR, OVMRUB =          13    8951.7636719    9294.4052734
OVLB =    8951.7636719 OVLUB =    9294.4052734 TIME =       0.4700000
